SCIP Status        : solving was interrupted [time limit reached]
Total Time         :    3600.01
  solving          :    3600.00
  presolving       :       0.26 (included in solving)
  reading          :       0.01
  copying          :       1.88 (57 #copies) (minimal 0.00, maximal 0.07, average 0.03)
Original Problem   :
  Problem name     : bbbenchmark/g05_60.2.cut
  Variables        : 61 (60 binary, 0 integer, 0 implicit integer, 1 continuous)
  Constraints      : 1 initial, 1 maximal
  Objective        : minimize, 1 non-zeros (abs.min = 1, abs.max = 1)
Presolved Problem  :
  Problem name     : t_bbbenchmark/g05_60.2.cut
  Variables        : 946 (60 binary, 0 integer, 885 implicit integer, 1 continuous)
  Constraints      : 886 initial, 10888 maximal
  Objective        : minimize, 1 non-zeros (abs.min = 1, abs.max = 1)
  Nonzeros         : 3601 constraint, 122 clique table
Presolvers         :   ExecTime  SetupTime  Calls  FixedVars   AggrVars   ChgTypes  ChgBounds   AddHoles    DelCons    AddCons   ChgSides   ChgCoefs
  boundshift       :       0.00       0.00      0          0          0          0          0          0          0          0          0          0
  convertinttobin  :       0.00       0.00      0          0          0          0          0          0          0          0          0          0
  domcol           :       0.00       0.00      1          0          0          0          0          0          0          0          0          0
  dualagg          :       0.00       0.00      0          0          0          0          0          0          0          0          0          0
  dualcomp         :       0.00       0.00      1          0          0          0          0          0          0          0          0          0
  dualinfer        :       0.00       0.00      0          0          0          0          0          0          0          0          0          0
  dualsparsify     :       0.00       0.00      1          0          0          0          0          0          0          0          0          0
  gateextraction   :       0.00       0.00      0          0          0          0          0          0          0          0          0          0
  implics          :       0.00       0.00      2          0          0          0          0          0          0          0          0          0
  inttobinary      :       0.00       0.00      0          0          0          0          0          0          0          0          0          0
  qpkktref         :       0.00       0.00      0          0          0          0          0          0          0          0          0          0
  redvub           :       0.00       0.00      0          0          0          0          0          0          0          0          0          0
  sparsify         :       0.00       0.00      1          0          0          0          0          0          0          0          0          0
  stuffing         :       0.00       0.00      0          0          0          0          0          0          0          0          0          0
  trivial          :       0.00       0.00      4          0          0          0          0          0          0          0          0          0
  tworowbnd        :       0.00       0.00      0          0          0          0          0          0          0          0          0          0
  dualfix          :       0.00       0.00      4          0          0          0          0          0          0          0          0          0
  genvbounds       :       0.00       0.00      0          0          0          0          0          0          0          0          0          0
  probing          :       0.12       0.00      1          0          0          0          0          0          0          0          0          0
  pseudoobj        :       0.00       0.00      1          0          0          0          1          0          0          0          0          0
  symmetry         :       0.00       0.00      0          0          0          0          0          0          0          0          0          0
  vbounds          :       0.00       0.00      1          0          0          0          0          0          0          0          0          0
  and              :       0.00       0.00      2          0          0          0          0          0          0          0          0          0
  linear           :       0.00       0.00      2          0          0          0          0          0          0          0          0          0
  logicor          :       0.00       0.00      0          0          0          0          0          0          0          0          0          0
  nonlinear        :       0.14       0.00      5          0          0          0          1          0          0        885          0          0
  benders          :       0.00       0.00      0          0          0          0          0          0          0          0          0          0
  components       :       0.00       0.00      1          0          0          0          0          0          0          0          0          0
  root node        :          -          -      -          0          -          -         37          -          -          -          -          -
Constraints        :     Number  MaxNumber  #Separate #Propagate    #EnfoLP    #EnfoRelax  #EnfoPS    #Check   #ResProp    Cutoffs    DomReds       Cuts    Applied      Conss   Children
  benderslp        :          0          0          0          0      72364          0          0      22142          0          0          0          0          0          0          0
  integral         :          0          0          0          0      72364          0          0      22142          0          0       4126          0          0       1355     142262
  and              :        885        885      87271     493370          7          0          0         28     115347          2    2347745        770        709          0          0
  linear           :          1+         2        200     493368          7          0          0         26          0          0          0          0          0          0          0
  logicor          :          0+     10001          0     129901          0          0          0          0        228        432         86          0          0          0          0
  benders          :          0          0          0          0          7          0          0         29          0          0          0          0          0          0          0
  countsols        :          0          0          0          0          7          0          0         29          0          0          0          0          0          0          0
  components       :          0          0          0          0          0          0          0          0          0          0          0          0          0          0          0
Constraint Timings :  TotalTime  SetupTime   Separate  Propagate     EnfoLP     EnfoPS     EnfoRelax   Check    ResProp    SB-Prop
  benderslp        :       0.08       0.00       0.00       0.00       0.07       0.00       0.00       0.01       0.00       0.00
  integral         :      47.82       0.00       0.00       0.00      47.80       0.00       0.00       0.02       0.00       0.00
  and              :      47.90       0.00      28.50      18.94       0.00       0.00       0.00       0.00       0.16       0.30
  linear           :       0.46       0.00       0.03       0.42       0.00       0.00       0.00       0.00       0.00       0.01
  logicor          :      19.28       0.00       0.00      19.26       0.00       0.00       0.00       0.00       0.00       0.02
  benders          :       0.00       0.00       0.00       0.00       0.00       0.00       0.00       0.00       0.00       0.00
  countsols        :       0.00       0.00       0.00       0.00       0.00       0.00       0.00       0.00       0.00       0.00
  components       :       0.15       0.00       0.00       0.15       0.00       0.00       0.00       0.00       0.00       0.00
Propagators        : #Propagate   #ResProp    Cutoffs    DomReds
  dualfix          :          4          0          0          0
  genvbounds       :          0          0          0          0
  nlobbt           :          0          0          0          0
  obbt             :          0          0          0          0
  probing          :          0          0          0          0
  pseudoobj        :     364540          0          0         37
  redcost          :     185212          0          0     261731
  rootredcost      :         15          0          0          0
  symmetry         :          0          0          0          0
  vbounds          :      36549          0          0          0
Propagator Timings :  TotalTime  SetupTime   Presolve  Propagate    ResProp    SB-Prop
  dualfix          :       0.00       0.00       0.00       0.00       0.00       0.00
  genvbounds       :       0.40       0.00       0.00       0.40       0.00       0.00
  nlobbt           :       0.00       0.00       0.00       0.00       0.00       0.00
  obbt             :       0.00       0.00       0.00       0.00       0.00       0.00
  probing          :       0.12       0.00       0.12       0.00       0.00       0.00
  pseudoobj        :       0.73       0.00       0.00       0.72       0.00       0.01
  redcost          :       6.70       0.00       0.00       6.70       0.00       0.00
  rootredcost      :       0.44       0.00       0.00       0.43       0.00       0.01
  symmetry         :       0.25       0.00       0.00       0.23       0.00       0.02
  vbounds          :       0.31       0.00       0.00       0.31       0.00       0.00
Conflict Analysis  :       Time      Calls    Success    DomReds  Conflicts   Literals    Reconvs ReconvLits   Dualrays   Nonzeros   LP Iters   (pool size: [10000,10000])
  propagation      :       0.00        434        329          -        374       30.8          0        0.0          -          -          -
  infeasible LP    :       0.00          0          0          -          0        0.0          0        0.0          1       81.0          0
  bound exceed. LP :      14.68       8755       6537          -      49906       38.2          0        0.0          0        0.0      43708
  strong branching :       0.00          0          0          -          0        0.0          0        0.0          -          -          0
  pseudo solution  :       0.00          0          0          -          0        0.0          0        0.0          -          -          -
  applied globally :       0.21          -          -          0      21403       38.2          -          -          1          -          -
  applied locally  :          -          -          -          0          0        0.0          -          -          0          -          -
Separators         :   ExecTime  SetupTime      Calls  RootCalls    Cutoffs    DomReds  FoundCuts ViaPoolAdd  DirectAdd    Applied ViaPoolApp  DirectApp      Conss
  cut pool         :       2.85          -      29952        231          -          -      24383     407073          -          -          -          -          -    (maximal pool size:       1485)
  aggregation      :     210.26       0.00       4811        200          0          0         25          1          0          1          1          0          0
  > cmir           :          -          -          -          -          -          -          -          1          0          1          1          0          -
  > flowcover      :          -          -          -          -          -          -          -          0          0          0          0          0          -
  > knapsackcover  :          -          -          -          -          -          -          -          0          0          0          0          0          -
  cgmip            :       0.00       0.00          0          0          0          0          0          0          0          0          0          0          0
  clique           :       0.00       0.00        200        200          0          0          0          0          0          0          0          0          0
  closecuts        :       0.00       0.00          0          0          0          0          0          0          0          0          0          0          0
  convexproj       :       0.00       0.00          0          0          0          0          0          0          0          0          0          0          0
  disjunctive      :       0.00       0.00          0          0          0          0          0          0          0          0          0          0          0
  eccuts           :       0.00       0.00          0          0          0          0          0          0          0          0          0          0          0
  gauge            :       0.00       0.00          0          0          0          0          0          0          0          0          0          0          0
  gomory           :       0.00       0.00          0          0          0          0          0          0          0          0          0          0          0
  > gomorymi       :          -          -          -          -          -          -          -          0          0          0          0          0          -
  > strongcg       :          -          -          -          -          -          -          -          0          0          0          0          0          -
  impliedbounds    :       0.16       0.00       4811        200          0          0          0          0          0          0          0          0          0
  interlattice     :       0.00       0.00          0          0          0          0          0          0          0          0          0          0          0
  interminor       :       0.00       0.00          0          0          0          0          0          0          0          0          0          0          0
  intersub         :       0.73       0.00        132        132          0          0        132          0        132        132          0        132          0
  intobj           :       0.00       0.00          0          0          0          0          0          0          0          0          0          0          0
  mcf              :       0.00       0.00          1          1          0          0          0          0          0          0          0          0          0
  minor            :       0.04       0.00          0          0          0          0          0          0          0          0          0          0          0
  mixing           :       0.01       0.00       4811        200          0          0          0          0          0          0          0          0          0
  oddcycle         :       0.00       0.00          0          0          0          0          0          0          0          0          0          0          0
  rapidlearning    :       0.05       0.00          0          0          0          0          0          0          0          0          0          0          0
  rlt              :       0.00       0.00         10         10          0          0          0          0          0          0          0          0          0
  zerohalf         :      20.96       0.00       3731         20          0          0      24358     407072          0      89040      89040          0          0
Cutselectors       :   ExecTime  SetupTime      Calls  RootCalls   Selected     Forced   Filtered  RootSelec   RootForc   RootFilt 
  hybrid           :       0.29       0.00      18151        201      89882          0     318093        362          0         27
Pricers            :   ExecTime  SetupTime      Calls       Vars
  problem variables:       0.00          -          0          0
Branching Rules    :   ExecTime  SetupTime   BranchLP  BranchExt   BranchPS    Cutoffs    DomReds       Cuts      Conss   Children
  allfullstrong    :       0.00       0.00          0          0          0          0          0          0          0          0
  cloud            :       0.00       0.00          0          0          0          0          0          0          0          0
  distribution     :       0.00       0.00          0          0          0          0          0          0          0          0
  fullstrong       :       0.00       0.00          0          0          0          0          0          0          0          0
  inference        :       0.00       0.00          0          0          0          0          0          0          0          0
  leastinf         :       0.00       0.00          0          0          0          0          0          0          0          0
  lookahead        :       0.00       0.00          0          0          0          0          0          0          0          0
  mostinf          :       0.00       0.00          0          0          0          0          0          0          0          0
  multaggr         :       0.00       0.00          0          0          0          0          0          0          0          0
  nodereopt        :       0.00       0.00          0          0          0          0          0          0          0          0
  pscost           :       0.00       0.00          0          0          0          0          0          0          0          0
  random           :       0.00       0.00          0          0          0          0          0          0          0          0
  relpscost        :      47.60       0.00      72357          0          0          0       4126          0       1613     142262
  vanillafullstrong:       0.00       0.00          0          0          0          0          0          0          0          0
Primal Heuristics  :   ExecTime  SetupTime      Calls      Found       Best
  LP solutions     :       0.00          -          -          7          7
  relax solutions  :       0.00          -          -          0          0
  pseudo solutions :       0.00          -          -          0          0
  strong branching :       0.02          -          -          1          1
  actconsdiving    :       0.00       0.00          0          0          0
  adaptivediving   :       3.11       0.00         69          0          0
  alns             :       2.66       0.00         24          3          3
  bound            :       0.00       0.00          0          0          0
  clique           :       0.00       0.00          1          0          0
  coefdiving       :       0.00       0.00          0          0          0
  completesol      :       0.00       0.00          0          0          0
  conflictdiving   :      14.80       0.00        436          0          0
  crossover        :       0.16       0.00          4          2          2
  dins             :       0.00       0.00          0          0          0
  distributiondivin:      31.60       0.00        435          0          0
  dps              :       0.00       0.00          0          0          0
  dualval          :       0.00       0.00          0          0          0
  farkasdiving     :       0.01       0.00          0          0          0
  feaspump         :       0.03       0.00          0          0          0
  fixandinfer      :       0.00       0.00          0          0          0
  fracdiving       :      19.78       0.00        436          0          0
  gins             :       0.10       0.00          0          0          0
  guideddiving     :      18.85       0.00        435          0          0
  indicator        :       0.12       0.00          0          0          0
  indicatordiving  :       0.00       0.00          0          0          0
  intdiving        :       0.00       0.00          0          0          0
  intshifting      :       0.17       0.00         21          0          0
  linesearchdiving :      18.50       0.00        435          0          0
  localbranching   :       0.00       0.00          0          0          0
  locks            :       0.01       0.00          1          0          0
  lpface           :       0.18       0.00          0          0          0
  mpec             :       1.71       0.00          1          0          0
  multistart       :       0.00       0.00          0          0          0
  mutation         :       0.00       0.00          0          0          0
  nlpdiving        :       4.63       0.00          8          0          0
  objpscostdiving  :      30.24       0.00         74          2          0
  octane           :       0.00       0.00          0          0          0
  ofins            :       0.05       0.00          0          0          0
  oneopt           :       0.11       0.00         25          0          0
  padm             :       0.00       0.00          0          0          0
  proximity        :       0.00       0.00          0          0          0
  pscostdiving     :      19.98       0.00        436          2          2
  randrounding     :       1.32       0.00      22109          0          0
  rens             :       0.00       0.00          0          0          0
  reoptsols        :       0.00       0.00          0          0          0
  repair           :       0.00       0.00          0          0          0
  rins             :       8.07       0.00         28          2          1
  rootsoldiving    :      36.15       0.00        102          2          0
  rounding         :       0.85       0.00       4134          0          0
  shiftandpropagate:       0.00       0.00          0          0          0
  shifting         :      42.59       0.00      18780          9          9
  simplerounding   :       0.15       0.00          0          0          0
  subnlp           :      79.48       0.00          0          0          0
  trivial          :       0.00       0.00          2          2          2
  trivialnegation  :       0.00       0.00          0          0          0
  trustregion      :       0.00       0.00          0          0          0
  trysol           :       0.16       0.00          0          0          0
  twoopt           :       0.00       0.00          0          0          0
  undercover       :       0.94       0.00          1          1          1
  vbounds          :       0.00       0.00          0          0          0
  veclendiving     :      11.79       0.00        436          0          0
  zeroobj          :       0.00       0.00          0          0          0
  zirounding       :       0.38       0.00       1000          0          0
  other solutions  :          -          -          -          0          -
Diving (single)    :      Calls      Nodes   LP Iters Backtracks  Conflicts   MinDepth   MaxDepth   AvgDepth  RoundSols  NLeafSols  MinSolDpt  MaxSolDpt  AvgSolDpt
  actconsdiving    :          0          -          -          -          -          -          -          -          -          -          -          -          -
  coefdiving       :          0          -          -          -          -          -          -          -          -          -          -          -          -
  conflictdiving   :        436       8268     124097        449       8344         24         47       33.2          0          -          -          -          -
  distributiondivin:        435       6196     197183        580       4705         23         37       28.2          0          -          -          -          -
  farkasdiving     :          0          -          -          -          -          -          -          -          -          -          -          -          -
  fracdiving       :        436      43326     157211        404       2565         29        254      113.9          0          -          -          -          -
  guideddiving     :        435      38211     163969        279       2395         26        214      102.3          0          -          -          -          -
  indicatordiving  :          0          -          -          -          -          -          -          -          -          -          -          -          -
  linesearchdiving :        435      10528     163498        570       9211         23         53       38.1          0          -          -          -          -
  pscostdiving     :        436       8352     184507        447       6598         24         45       33.4          0          2         42         42       42.0
  veclendiving     :        436       8112      87246        442      10502         28         47       32.9          0          -          -          -          -
Diving (adaptive)  :      Calls      Nodes   LP Iters Backtracks  Conflicts   MinDepth   MaxDepth   AvgDepth  RoundSols  NLeafSols  MinSolDpt  MaxSolDpt  AvgSolDpt
  actconsdiving    :         15        220       6150         24        178         25         33       28.5          0          -          -          -          -
  coefdiving       :         23        444       5467         24        567         29         37       32.6          0          -          -          -          -
  conflictdiving   :          0          -          -          -          -          -          -          -          -          -          -          -          -
  distributiondivin:          0          -          -          -          -          -          -          -          -          -          -          -          -
  farkasdiving     :          0          -          -          -          -          -          -          -          -          -          -          -          -
  fracdiving       :          2        239        607          0          0        131        137      134.0          0          -          -          -          -
  guideddiving     :          4        252       1552          3         31         52        121       75.8          0          -          -          -          -
  indicatordiving  :          0          -          -          -          -          -          -          -          -          -          -          -          -
  linesearchdiving :          9        245       3937         14        243         29         48       41.3          0          -          -          -          -
  pscostdiving     :          6        121       3271          6        109         29         36       33.5          0          -          -          -          -
  veclendiving     :         10        183       1957         10        216         29         36       32.6          0          -          -          -          -
Neighborhoods      :      Calls  SetupTime  SolveTime SolveNodes       Sols       Best       Exp3  EpsGreedy        UCB TgtFixRate  Opt  Inf Node Stal  Sol  Usr Othr Actv
  rens             :          3       0.20       0.05          4          0          0    0.00000   -1.00000    0.53652      0.437    0    3    0    0    0    0    0    1
  rins             :          2       0.11       0.04          5          0          0    0.00000   -1.00000    0.54405      0.550    0    2    0    0    0    0    0    1
  mutation         :          4       0.13       0.28         91          2          2    0.00000   -1.00000    0.52555      0.522    1    2    0    1    0    0    0    1
  localbranching   :          3       0.22       0.14         62          0          0    0.00000   -1.00000    0.46098      0.662    0    2    0    1    0    0    0    1
  crossover        :          3       0.23       0.01          2          0          0    0.00000   -1.00000    0.53890      0.437    0    3    0    0    0    0    0    1
  proximity        :          2       0.07       0.07         27          0          0    0.00000   -1.00000    0.51254      0.550    0    2    0    0    0    0    0    1
  zeroobjective    :          3       0.24       0.15         59          0          0    0.00000   -1.00000    0.46098      0.662    0    2    0    1    0    0    0    1
  dins             :          4       0.23       0.21        117          1          1    0.00000   -1.00000    0.49582      0.522    1    2    0    1    0    0    0    1
  trustregion      :          0       0.00       0.00          0          0          0    0.00000   -1.00000    1.00000      0.900    0    0    0    0    0    0    0    0
Expressions        :   #IntEval  IntEvalTi   #RevProp  RevPropTi    DomReds    Cutoffs  #Estimate  EstimTime  Branching  #Simplify SimplifyTi Simplified
  pow              :          0       0.00          0       0.00          0          0          0       0.00          0          0       0.00          0
  prod             :       3540       0.00          0       0.00          0          0          0       0.00          0       2655       0.01          0
  sum              :          8       0.01          2       0.00          0          0          0       0.00          0          3       0.02          2
  var              :       3327       0.00          0       0.00          0          0          0       0.00          0       6378       0.00          0
  varidx           :          0       0.00          0       0.00          0          0          0       0.00          0          0       0.00          0
LP                 :       Time      Calls Iterations  Iter/call   Iter/sec  Time-0-It Calls-0-It    ItLimit
  primal LP        :     179.20      13718          0       0.00       0.00     179.14      13718
  dual LP          :    2585.80     171957   14896798      99.58    5761.00       8.50      22359
  lex dual LP      :       0.00          0          0       0.00          -
  barrier LP       :       0.00          0          0       0.00          -       0.00          0
  resolve instable :       0.00          0          0       0.00          -
  diving/probing LP:     166.05      11618    1504770     129.52    9062.15
  strong branching :      29.70       2041     226909     111.18    7640.03          -          -         67
    (at root node) :          -         40      33824     845.60          -
  conflict analysis:       7.23       4477      43708       9.76    6045.37
NLP relaxation     :
  solve time       :       4.63 (8 calls)
  convexity        :  nonconvex (1 linear rows, 0 convex ineq., 0 nonconvex ineq., 885 nonlinear eq. or two-sided ineq.)
NLP Solvers        :  #Problems  ProblemTi    #Solves  SolveTime      #Iter  Time/Iter      #Okay #TimeLimit #IterLimit #LObjLimit #Interrupt  #NumError #EvalError  #OutOfMem #LicenseEr #OtherTerm   #GlobOpt    #LocOpt  #Feasible #LocInfeas #GlobInfea #Unbounded   #Unknown
  ipopt            :          2       4.32         11       6.35        343       0.02         11          0          0          0          0          0          0          0          0          0          0          0          0          3          0          0          8
B&B Tree           :
  number of runs   :          1
  nodes            :     130240 (71131 internal, 59109 leaves)
  feasible leaves  :          7
  infeas. leaves   :         19
  objective leaves :      59083
  nodes (total)    :     130240 (71131 internal, 59109 leaves)
  nodes left       :      11980
  max depth        :         35
  max depth (total):         35
  backtracks       :      31633 (24.3%)
  early backtracks :          0 (0.0%)
  nodes exc. ref.  :          0 (0.0%)
  delayed cutoffs  :          1
  repropagations   :         56 (200 domain reductions, 0 cutoffs)
  avg switch length:       4.05
  switching time   :     205.71
Estim. Tree Size   :    5013223
Estimation Tree    : 142263 nodes (130282 visited, 71131 internal, 59151 leaves, 11981 open), weight: 0.0290 completed 0.2597
Estimations        :      estim      value      trend resolution     smooth
  wbe              :    4074422          -          -          -          -
  tree-profile     :         -1          -          -          -          -
  gap              :     498708    0.88107    0.00004         64     487399
  tree-weight      :    5013223    0.02904    0.00003         64    5014753
  leaf-frequency   :     260564    0.45402   -0.00000         64     274205
  ssg              :     772270    0.60670   -0.00012         64     759415
  open-nodes       :     260564 11981.00000    7.49261         64     260407
Root Node          :
  First LP value   : -1.00000000000000e+00
  First LP Iters   :        565 (28250.00 Iter/sec)
  First LP Time    :       0.02
  Final Dual Bound : -8.69576501270456e-01
  Final Root Iters :      13054
  Root LP Estimate : -8.45499250198402e-02
Solution           :
  Solutions found  :         33 (28 improvements)
  First Solution   : +1.00000000000000e+05   (in run 1, after 0 nodes, 0.03 seconds, depth 0, found by <trivial>)
  Gap First Sol.   :   infinite
  Gap Last Sol.    :      22.62 %
  Primal Bound     : -5.94350282485876e-01   (in run 1, after 37746 nodes, 958.32 seconds, depth 20, found by <alns>)
  Dual Bound       : -6.74576271186441e-01
  Gap              :      13.50 %
Integrals          :      Total       Avg%
  primal-dual      :   61935.87      17.20
  primal-ref       :          -          - (not evaluated)
  dual-ref         :          -          - (not evaluated)
